WARNING: for repeatability, setting FPU to use double precision
============================[ Problem Statistics ]=============================
|                                                                             |
|  Number of variables:            50                                         |
|  Number of clauses:             218                                         |
|  Parse time:                   0.00 s                                       |
|                                                                             |
============================[ Search Statistics ]==============================
| Conflicts |          ORIGINAL         |          LEARNT          | Progress |
|           |    Vars  Clauses Literals |    Limit  Clauses Lit/Cl |          |
===============================================================================
===============================================================================
restarts              : 1
conflicts             : 41             (28571 /sec)
decisions             : 58             (0.00 % random) (40418 /sec)
propagations          : 644            (448780 /sec)
conflict literals     : 182            (14.95 % deleted)
Memory used           : 20.00 MB
CPU time              : 0.001435 s

SATISFIABLE
